10  5
  0  30  1  9  2  29  3  83  4  14
  0  31  1  3  2  79  3  19  4  39
  0  41  1  57  2  27  3  7  4  92
  0  73  1  2  2  44  3  1  4  61
  0  26  1  19  2  72  3  55  4  27
  0  20  1  57  2  14  3  21  4  25
  0  61  1  36  2  15  3  70  4  62
  0  73  1  61  2  35  3  3  4  51
  0  30  1  86  2  86  3  86  4  64
  0  51  1  1  2  43  3  17  4  7
